Solving original (integer) problem with strategy gdp.bigm...
--- Job model.gms Start 02/15/26 06:37:54 52.2.0 d8e408be LEX-LEG x86 64bit/Linux
--- Applying:
    /package/gams/52.2/gmsprmun.txt
--- GAMS Parameters defined
    Input /local/scratch/a/sgusev/repos/k_means/data/gams_gurobi_gdp.bigm/no_mode/2026-02-15_06-37-54/original/model.gms
    Output /local/scratch/a/sgusev/repos/k_means/data/gams_gurobi_gdp.bigm/no_mode/2026-02-15_06-37-54/original/output.lst
    ScrDir /local/scratch/a/sgusev/repos/k_means/data/gams_gurobi_gdp.bigm/no_mode/2026-02-15_06-37-54/original/225a/
    SysDir /package/gams/52.2/
    CurDir /local/scratch/a/sgusev/repos/k_means/data/gams_gurobi_gdp.bigm/no_mode/2026-02-15_06-37-54/original/
    LogOption 3
    AppendLog 1
Licensee: David Bernal / SECQUOIA Research Group         G251008+0003Ac-GEN
          Purdue University, Davidson School of Chemical EngineeringDCE4838
          225a/gamslice.dat
          5a82958a-fbca-4a23
          node:66820903 mem:995 cores:48 ipport:41921 v:2                  
          Evaluation license: Not for commercial or production use
          The time-limited license stops working on : Jun 30, 2027
System information: 48 physical cores and 995 Gb physical memory detected
GAMS 52.2.0   Copyright (C) 1987-2025 GAMS Development. All rights reserved
--- Starting compilation
--- model.gms(353) 2 Mb
--- $echo File /local/scratch/a/sgusev/repos/k_means/data/gams_gurobi_gdp.bigm/no_mode/2026-02-15_06-37-54/original/gurobi.opt
--- model.gms(604) 2 Mb
--- Starting execution: elapsed 0:00:00.007
--- model.gms(362) 3 Mb
--- Generating MINLP model GAMS_MODEL
--- model.gms(366) 5 Mb
---   84 rows  101 columns  535 non-zeroes
---   1,344 nl-code  320 nl-non-zeroes
---   64 discrete-columns
--- Range statistics (absolute non-zero finite values)
--- RHS       [min, max] : [ 1.000E+00, 1.519E+01] - Zero values observed as well
--- Bound     [min, max] : [ 1.000E+00, 1.600E+02] - Zero values observed as well
--- Matrix    [min, max] : [ 2.883E-02, 1.519E+01]
--- model.gms(366) 3 Mb
--- Executing GUROBI (Solvelink=5): elapsed 0:00:00.010
Reading parameter(s) from "/local/scratch/a/sgusev/repos/k_means/data/gams_gurobi_gdp.bigm/no_mode/2026-02-15_06-37-54/original/gurobi.opt"
>>  NonConvex 2
>>  Threads 1
>>  MIPGap 1e-06
>>  MIPGapAbs 1e-10
>>  FeasibilityTol 1e-06
>>  OptimalityTol 1e-06
>>  IntFeasTol 1e-05
Finished reading from "/local/scratch/a/sgusev/repos/k_means/data/gams_gurobi_gdp.bigm/no_mode/2026-02-15_06-37-54/original/gurobi.opt"

... GRB_LICENSE_FILE = /local/scratch/a/sgusev/gurobi.lic

    Gurobi           52.2.0 d8e408be Dec 8, 2025           LEG x86 64bit/Linux    

... GAMS/Gurobi Link license.
... GMO Q Extraction (ThreePass): 0.00s

    Gurobi Optimizer version 13.0.0 build v13.0.0rc1 (linux64 - "Oracle Linux Server 9.7")
    
    CPU model: AMD EPYC 7643 48-Core Processor, instruction set [SSE2|AVX|AVX2]
    Thread count: 48 physical cores, 96 logical processors, using up to 1 threads
    
    Non-default parameters:
    TimeLimit  300
    MIPGap  1e-06
    LogToConsole  0
    NonConvex  2
    Threads  1
    
    Optimize a model with 19 rows, 100 columns and 70 nonzeros (Min)
    Model fingerprint: 0x023300c9
    Model has 16 linear objective coefficients
    Model has 64 quadratic constraints
    Variable types: 36 continuous, 64 integer (0 binary)
    Coefficient statistics:
      Matrix range     [1e+00, 1e+00]
      QMatrix range    [1e+00, 1e+00]
      QLMatrix range   [3e-02, 2e+01]
      Objective range  [1e+00, 1e+00]
      Bounds range     [1e+00, 2e+02]
      RHS range        [1e+00, 1e+00]
      QRHS range       [8e+00, 1e+01]
    Presolve added 64 rows and 4 columns
    Presolve time: 0.00s
    Presolved: 83 rows, 104 columns, 582 nonzeros
    Presolved model has 4 quadratic constraint(s)
    Variable types: 40 continuous, 64 integer (64 binary)
    
    Root relaxation: objective 0.000000e+00, 28 iterations, 0.00 seconds (0.00 work units)
    
        Nodes    |    Current Node    |     Objective Bounds      |     Work
     Expl Unexpl |  Obj  Depth IntInf | Incumbent    BestBd   Gap | It/Node Time
    
    H    0     0                      14.4947793    0.00000   100%     -    0s
    *    0     0               0      14.4947793    0.00000   100%     -    0s
         0     0    0.00000    0   20   14.49478    0.00000   100%     -    0s
         0     0    0.00000    0   37   14.49478    0.00000   100%     -    0s
         0     0    0.00000    0   37   14.49478    0.00000   100%     -    0s
         0     0    0.00000    0   31   14.49478    0.00000   100%     -    0s
         0     0    0.00000    0    -   14.49478    0.00000   100%     -    0s
         0     0    0.00000    0   25   14.49478    0.00000   100%     -    0s
         0     0    0.00000    0   39   14.49478    0.00000   100%     -    0s
         0     0    0.00000    0    2   14.49478    0.00000   100%     -    0s
    H    0     0                      13.0257997    0.00000   100%     -    0s
         0     0    0.00000    0   25   13.02580    0.00000   100%     -    0s
         0     0    0.00000    0   38   13.02580    0.00000   100%     -    0s
         0     0    0.00000    0    -   13.02580    0.00000   100%     -    0s
         0     0    0.00000    0   20   13.02580    0.00000   100%     -    0s
         0     0    0.00000    0   30   13.02580    0.00000   100%     -    0s
    H    0     0                      12.5633833    0.00000   100%     -    0s
    *    0     0               0      12.5633833    0.00000   100%     -    0s
         0     0    0.00000    0   12   12.56338    0.00000   100%     -    0s
         0     0    0.00000    0   20   12.56338    0.00000   100%     -    0s
         0     0    0.00000    0   20   12.56338    0.00000   100%     -    0s
         0     0    0.00000    0   30   12.56338    0.00000   100%     -    0s
         0     0    0.00000    0    6   12.56338    0.00000   100%     -    0s
         0     0    0.00000    0   20   12.56338    0.00000   100%     -    0s
         0     0    0.00000    0    6   12.56338    0.00000   100%     -    0s
         0     0    0.00000    0   22   12.56338    0.00000   100%     -    0s
         0     0    0.00000    0    -   12.56338    0.00000   100%     -    0s
         0     0    0.00000    0   20   12.56338    0.00000   100%     -    0s
         0     0    0.00000    0   29   12.56338    0.00000   100%     -    0s
         0     0    0.00000    0    8   12.56338    0.00000   100%     -    0s
         0     0    0.00000    0   20   12.56338    0.00000   100%     -    0s
         0     0    0.00000    0   18   12.56338    0.00000   100%     -    0s
         0     0    0.00000    0   16   12.56338    0.00000   100%     -    0s
         0     0    0.00000    0   14   12.56338    0.00000   100%     -    0s
         0     0    0.00000    0   22   12.56338    0.00000   100%     -    0s
         0     0    0.00000    0   12   12.56338    0.00000   100%     -    0s
         0     0    0.00000    0   24   12.56338    0.00000   100%     -    0s
         0     0    0.00000    0    8   12.56338    0.00000   100%     -    0s
         0     0    0.00000    0   21   12.56338    0.00000   100%     -    0s
         0     0    0.00000    0   10   12.56338    0.00000   100%     -    0s
         0     0    0.00000    0   20   12.56338    0.00000   100%     -    0s
         0     0    0.00000    0   20   12.56338    0.00000   100%     -    0s
         0     0    0.00000    0   28   12.56338    0.00000   100%     -    0s
         0     0    0.00000    0   10   12.56338    0.00000   100%     -    0s
         0     0    0.00000    0   18   12.56338    0.00000   100%     -    0s
         0     0    0.00000    0    6   12.56338    0.00000   100%     -    0s
         0     0    0.00000    0   30   12.56338    0.00000   100%     -    0s
         0     0    0.00000    0   12   12.56338    0.00000   100%     -    0s
         0     0    0.00000    0   14   12.56338    0.00000   100%     -    0s
         0     0    0.00000    0    8   12.56338    0.00000   100%     -    0s
         0     0    0.00000    0   14   12.56338    0.00000   100%     -    0s
         0     0    0.00000    0    8   12.56338    0.00000   100%     -    0s
         0     0    0.00000    0   18   12.56338    0.00000   100%     -    0s
         0     0    0.00000    0   14   12.56338    0.00000   100%     -    0s
         0     0    0.00000    0   20   12.56338    0.00000   100%     -    0s
         0     0    0.00000    0   12   12.56338    0.00000   100%     -    0s
         0     0    0.00000    0   14   12.56338    0.00000   100%     -    0s
         0     0    0.00000    0   14   12.56338    0.00000   100%     -    0s
         0     0    0.00000    0   18   12.56338    0.00000   100%     -    0s
         0     0    0.00000    0   14   12.56338    0.00000   100%     -    0s
         0     0    0.00000    0   20   12.56338    0.00000   100%     -    0s
         0     0    0.00000    0    8   12.56338    0.00000   100%     -    0s
         0     0    0.00000    0   16   12.56338    0.00000   100%     -    0s
         0     0    0.00000    0   14   12.56338    0.00000   100%     -    0s
         0     0    0.00000    0   16   12.56338    0.00000   100%     -    0s
         0     0    0.00000    0   10   12.56338    0.00000   100%     -    0s
         0     0    0.00000    0   26   12.56338    0.00000   100%     -    0s
         0     0    0.00000    0   10   12.56338    0.00000   100%     -    0s
         0     0    0.00000    0   18   12.56338    0.00000   100%     -    0s
         0     0    0.00000    0   18   12.56338    0.00000   100%     -    0s
         0     0    0.00000    0   18   12.56338    0.00000   100%     -    0s
         0     0    0.00000    0   10   12.56338    0.00000   100%     -    0s
         0     0    0.00000    0   20   12.56338    0.00000   100%     -    0s
         0     0    0.00000    0   20   12.56338    0.00000   100%     -    0s
         0     0    0.00000    0   18   12.56338    0.00000   100%     -    0s
         0     0    0.00000    0    8   12.56338    0.00000   100%     -    0s
         0     0    0.00000    0   19   12.56338    0.00000   100%     -    0s
         0     0    0.00000    0   18   12.56338    0.00000   100%     -    0s
         0     0    0.00000    0   22   12.56338    0.00000   100%     -    0s
         0     0    0.00000    0    8   12.56338    0.00000   100%     -    0s
         0     0    0.00000    0   18   12.56338    0.00000   100%     -    0s
         0     0    0.00000    0   18   12.56338    0.00000   100%     -    0s
         0     0    0.00000    0   29   12.56338    0.00000   100%     -    0s
         0     0    0.00000    0    6   12.56338    0.00000   100%     -    0s
         0     0    0.00000    0   19   12.56338    0.00000   100%     -    0s
         0     0    0.00000    0   16   12.56338    0.00000   100%     -    0s
         0     0    0.00000    0   16   12.56338    0.00000   100%     -    0s
         0     0    0.00000    0   16   12.56338    0.00000   100%     -    0s
         0     0    0.00000    0   20   12.56338    0.00000   100%     -    0s
         0     0    0.00000    0   20   12.56338    0.00000   100%     -    0s
         0     0    0.00000    0   28   12.56338    0.00000   100%     -    0s
         0     0    0.00000    0   12   12.56338    0.00000   100%     -    0s
         0     0    0.00000    0   20   12.56338    0.00000   100%     -    0s
         0     0    0.00000    0   12   12.56338    0.00000   100%     -    0s
         0     0    0.00000    0   22   12.56338    0.00000   100%     -    0s
         0     0    0.00000    0   16   12.56338    0.00000   100%     -    0s
         0     0    0.00000    0   26   12.56338    0.00000   100%     -    0s
         0     0    0.00000    0   18   12.56338    0.00000   100%     -    0s
         0     0    0.00000    0   18   12.56338    0.00000   100%     -    0s
         0     0    0.00000    0    6   12.56338    0.00000   100%     -    0s
         0     0    0.00000    0   16   12.56338    0.00000   100%     -    0s
         0     0    0.00000    0    6   12.56338    0.00000   100%     -    0s
         0     0    0.00000    0   22   12.56338    0.00000   100%     -    0s
         0     0    0.00000    0    6   12.56338    0.00000   100%     -    0s
         0     0    0.00000    0   28   12.56338    0.00000   100%     -    0s
         0     0    0.00000    0   12   12.56338    0.00000   100%     -    0s
         0     0    0.00000    0   18   12.56338    0.00000   100%     -    0s
         0     0    0.00000    0   12   12.56338    0.00000   100%     -    0s
         0     0    0.00000    0   31   12.56338    0.00000   100%     -    0s
         0     0    0.00000    0    8   12.56338    0.00000   100%     -    0s
         0     0    0.00000    0   22   12.56338    0.00000   100%     -    0s
         0     0    0.00000    0   10   12.56338    0.00000   100%     -    0s
         0     0    0.00000    0   22   12.56338    0.00000   100%     -    0s
         0     0    0.00000    0   20   12.56338    0.00000   100%     -    0s
         0     0    0.00000    0   30   12.56338    0.00000   100%     -    0s
         0     0    0.00000    0   14   12.56338    0.00000   100%     -    0s
         0     0    0.00000    0   32   12.56338    0.00000   100%     -    0s
         0     0    0.00000    0   10   12.56338    0.00000   100%     -    0s
         0     0    0.00000    0   28   12.56338    0.00000   100%     -    0s
         0     0    0.00000    0   12   12.56338    0.00000   100%     -    0s
         0     0    0.00000    0   20   12.56338    0.00000   100%     -    0s
         0     0    0.00000    0   20   12.56338    0.00000   100%     -    0s
         0     0    0.00000    0   24   12.56338    0.00000   100%     -    0s
         0     0    0.00000    0    8   12.56338    0.00000   100%     -    0s
         0     0    0.00000    0   26   12.56338    0.00000   100%     -    0s
         0     0    0.00000    0   14   12.56338    0.00000   100%     -    0s
         0     0    0.00000    0   22   12.56338    0.00000   100%     -    0s
         0     0    0.00000    0   10   12.56338    0.00000   100%     -    0s
         0     0    0.00000    0   20   12.56338    0.00000   100%     -    0s
         0     0    0.00000    0   16   12.56338    0.00000   100%     -    0s
         0     0    0.00000    0   22   12.56338    0.00000   100%     -    0s
         0     0    0.00000    0   12   12.56338    0.00000   100%     -    0s
         0     0    0.00000    0   20   12.56338    0.00000   100%     -    0s
         0     0    0.00000    0   10   12.56338    0.00000   100%     -    0s
         0     0    0.00000    0   20   12.56338    0.00000   100%     -    0s
         0     0    0.00000    0   12   12.56338    0.00000   100%     -    0s
         0     0    0.00000    0   18   12.56338    0.00000   100%     -    0s
         0     0    0.00000    0   16   12.56338    0.00000   100%     -    0s
         0     0    0.00000    0   26   12.56338    0.00000   100%     -    0s
         0     0    0.00000    0    8   12.56338    0.00000   100%     -    0s
         0     0    0.00000    0   16   12.56338    0.00000   100%     -    0s
         0     0    0.00000    0   10   12.56338    0.00000   100%     -    0s
         0     0    0.00000    0   16   12.56338    0.00000   100%     -    0s
         0     0    0.00000    0   16   12.56338    0.00000   100%     -    0s
         0     0    0.00000    0   27   12.56338    0.00000   100%     -    0s
         0     0    0.00000    0   18   12.56338    0.00000   100%     -    0s
         0     0    0.00000    0   24   12.56338    0.00000   100%     -    0s
         0     0    0.00000    0   12   12.56338    0.00000   100%     -    0s
         0     0    0.00000    0   18   12.56338    0.00000   100%     -    0s
         0     0    0.00000    0   12   12.56338    0.00000   100%     -    0s
         0     0    0.00000    0   18   12.56338    0.00000   100%     -    0s
         0     0    0.00000    0   12   12.56338    0.00000   100%     -    0s
         0     0    0.00000    0   22   12.56338    0.00000   100%     -    0s
         0     0    0.00000    0   20   12.56338    0.00000   100%     -    0s
         0     0    0.00000    0   22   12.56338    0.00000   100%     -    0s
         0     0    0.00000    0   12   12.56338    0.00000   100%     -    0s
         0     0    0.00000    0   20   12.56338    0.00000   100%     -    0s
         0     0    0.00000    0   18   12.56338    0.00000   100%     -    0s
         0     0    0.00000    0   24   12.56338    0.00000   100%     -    0s
         0     0    0.00000    0    8   12.56338    0.00000   100%     -    0s
         0     0    0.00000    0   27   12.56338    0.00000   100%     -    0s
         0     0    0.00000    0   16   12.56338    0.00000   100%     -    0s
         0     0    0.00000    0   16   12.56338    0.00000   100%     -    0s
         0     0    0.00000    0   16   12.56338    0.00000   100%     -    0s
         0     0    0.00000    0   22   12.56338    0.00000   100%     -    0s
         0     0    0.00000    0    4   12.56338    0.00000   100%     -    0s
         0     0    0.00000    0   16   12.56338    0.00000   100%     -    0s
         0     0    0.00000    0   16   12.56338    0.00000   100%     -    0s
         0     0    0.00000    0   28   12.56338    0.00000   100%     -    0s
         0     0    0.00000    0   10   12.56338    0.00000   100%     -    0s
         0     0    0.00000    0   31   12.56338    0.00000   100%     -    0s
         0     0    0.00000    0    6   12.56338    0.00000   100%     -    0s
         0     0    0.00000    0   24   12.56338    0.00000   100%     -    0s
         0     0    0.00000    0   10   12.56338    0.00000   100%     -    0s
         0     0    0.00000    0   22   12.56338    0.00000   100%     -    0s
         0     0    0.00000    0    8   12.56338    0.00000   100%     -    0s
         0     0    0.00000    0   18   12.56338    0.00000   100%     -    0s
         0     0    0.00000    0    6   12.56338    0.00000   100%     -    0s
         0     0    0.00000    0   18   12.56338    0.00000   100%     -    0s
         0     0    0.00000    0   16   12.56338    0.00000   100%     -    0s
         0     0    0.00000    0   25   12.56338    0.00000   100%     -    0s
         0     0    0.00000    0    8   12.56338    0.00000   100%     -    0s
         0     0    0.00000    0   28   12.56338    0.00000   100%     -    0s
         0     0    0.00000    0   12   12.56338    0.00000   100%     -    0s
         0     0    0.00000    0   29   12.56338    0.00000   100%     -    0s
         0     0    0.00000    0    6   12.56338    0.00000   100%     -    0s
         0     0    0.00000    0   22   12.56338    0.00000   100%     -    0s
         0     0    0.00000    0   14   12.56338    0.00000   100%     -    0s
         0     0    0.00000    0   22   12.56338    0.00000   100%     -    0s
         0     0    0.00000    0    8   12.56338    0.00000   100%     -    0s
         0     0    0.00000    0   22   12.56338    0.00000   100%     -    0s
         0     0    0.00000    0    8   12.56338    0.00000   100%     -    0s
         0     0    0.00000    0   24   12.56338    0.00000   100%     -    0s
         0     0    0.00000    0   12   12.56338    0.00000   100%     -    0s
         0     0    0.00000    0   29   12.56338    0.00000   100%     -    0s
         0     0    0.00000    0   12   12.56338    0.00000   100%     -    0s
         0     0    0.00000    0   22   12.56338    0.00000   100%     -    0s
         0     0    0.00000    0   10   12.56338    0.00000   100%     -    0s
         0     0    0.00000    0   20   12.56338    0.00000   100%     -    0s
         0     0    0.00000    0   14   12.56338    0.00000   100%     -    0s
         0     0    0.00000    0   22   12.56338    0.00000   100%     -    0s
         0     0    0.00000    0   12   12.56338    0.00000   100%     -    0s
         0     0    0.00000    0   31   12.56338    0.00000   100%     -    0s
         0     0    0.00000    0   10   12.56338    0.00000   100%     -    0s
         0     0    0.00000    0   23   12.56338    0.00000   100%     -    0s
         0     0    0.00000    0   12   12.56338    0.00000   100%     -    0s
         0     0    0.00000    0   24   12.56338    0.00000   100%     -    0s
         0     0    0.00000    0   14   12.56338    0.00000   100%     -    0s
         0     0    0.00000    0   20   12.56338    0.00000   100%     -    0s
         0     0    0.00000    0    6   12.56338    0.00000   100%     -    0s
    H    0     0                      11.3643236    0.00000   100%     -    0s
    H    0     0                      11.3643233    0.00000   100%     -    0s
         0     2    0.00000    0    6   11.36432    0.00000   100%     -    0s
    H   52    52                      11.3643232    0.00000   100%  10.0    0s
    H  156   140                      11.3643232    0.00000   100%   8.5    0s
    H  260   220                      11.3643232    0.00000   100%   8.4    0s
    H  297   229                      11.3643232    0.00000   100%   8.1    0s
    H  401   283                      11.3643231    0.00000   100%  50.7    1s
    H  402   267                      11.3643231    0.00000   100%  50.6    1s
    H  409   257                      11.3643231    0.00000   100%  49.9    1s
     19046 12732    6.74303   42   10   11.36432    0.36552  96.8%   7.8    5s
    H20303 13527                      11.3643231    0.41819  96.3%   7.8    5s
    H20303 13527                      11.3643230    0.41819  96.3%   7.8    5s
    H20303 13527                      11.3643230    0.41819  96.3%   7.8    5s
    H20303 13527                      11.3643230    0.41819  96.3%   7.8    5s
    H20303 13527                      11.3643228    0.41819  96.3%   7.8    5s
    H20303 13527                      11.3643228    0.41819  96.3%   7.8    5s
     44665 28405    5.94286   32   14   11.36432    1.08754  90.4%   7.3   10s
    H47371 29591                      11.0422637    1.14110  89.7%   7.3   10s
     70200 42659     cutoff   40        11.04226    1.52582  86.2%   7.3   15s
    H74240 44862                      10.9883761    1.57714  85.6%   7.3   15s
    H80952 48545                      10.9883761    1.68127  84.7%   7.3   17s
    H81007 48582                      10.9883761    1.68127  84.7%   7.3   17s
    H81062 48611                      10.9883761    1.68133  84.7%   7.3   17s
    H81114 48637                      10.9883760    1.68271  84.7%   7.3   17s
     93650 55562    7.94452   47    8   10.98838    1.84022  83.3%   7.4   20s
     116819 68011   10.89164   42    8   10.98838    2.07419  81.1%   7.4   25s
     139389 79931    6.66173   29   16   10.98838    2.23287  79.7%   7.4   30s
     160886 91084    9.48863   38   14   10.98838    2.38542  78.3%   7.5   35s
     181537 101282    8.47169   33   14   10.98838    2.52966  77.0%   7.5   40s
     202210 111430     cutoff   42        10.98838    2.65262  75.9%   7.5   45s
    H217775 119069                      10.9883760    2.74787  75.0%   7.5   48s
    H217775 119069                      10.9883760    2.74787  75.0%   7.5   48s
    H217970 119148                      10.9883759    2.74992  75.0%   7.5   48s
    H218235 119282                      10.9883759    2.75083  75.0%   7.5   48s
     222602 121413    3.80983   28   18   10.98838    2.76997  74.8%   7.5   50s
    H227918 124026                      10.9883759    2.79444  74.6%   7.5   51s
    H228130 124131                      10.9883758    2.79484  74.6%   7.5   51s
     240695 130085     cutoff   41        10.98838    2.85558  74.0%   7.5   55s
     261279 139896     cutoff   35        10.98838    2.95118  73.1%   7.5   60s
     281714 149382   10.06573   39   12   10.98838    3.03366  72.4%   7.5   65s
     302308 159056     cutoff   36        10.98838    3.10593  71.7%   7.5   70s
     322725 168538    6.55170   33   16   10.98838    3.16942  71.2%   7.6   75s
     343327 177864     cutoff   37        10.98838    3.23665  70.5%   7.6   80s
    H346758 179399                      10.9883758    3.24834  70.4%   7.6   81s
     359695 185381    9.05402   34   10   10.98838    3.28832  70.1%   7.6   85s
     379952 194499    8.66225   31   12   10.98838    3.35129  69.5%   7.6   90s
     399581 203308     cutoff   45        10.98838    3.40366  69.0%   7.6   95s
     419163 212099     cutoff   44        10.98838    3.46251  68.5%   7.6  100s
     438444 220601    9.83230   39   12   10.98838    3.51775  68.0%   7.6  105s
     457677 228861   10.53239   41    8   10.98838    3.57240  67.5%   7.6  110s
     476598 237103    8.93075   40   10   10.98838    3.62285  67.0%   7.6  115s
     495512 245263    4.56436   30   18   10.98838    3.67114  66.6%   7.6  120s
    H501900 245790                      10.8505724    3.68574  66.0%   7.6  121s
    H502007 245847                      10.8505724    3.68620  66.0%   7.6  121s
    H502060 245861                      10.8505724    3.68628  66.0%   7.6  121s
    H502112 245898                      10.8505723    3.68652  66.0%   7.6  121s
    H502168 245927                      10.8505723    3.68654  66.0%   7.6  121s
    H502220 245946                      10.8505723    3.68688  66.0%   7.6  121s
    H502274 245972                      10.8505723    3.68695  66.0%   7.6  121s
    H502431 246047                      10.8505723    3.68725  66.0%   7.6  122s
    H502799 246231                      10.8505723    3.68791  66.0%   7.6  122s
     512730 250528    8.82019   42    8   10.85057    3.71193  65.8%   7.6  125s
     531929 258551     cutoff   36        10.85057    3.76361  65.3%   7.6  130s
    H542395 262896                      10.8505716    3.78927  65.1%   7.6  132s
     549569 265768   10.68388   43    6   10.85057    3.80684  64.9%   7.6  135s
     568262 273529     cutoff   40        10.85057    3.85020  64.5%   7.6  140s
     587273 281075    9.02084   36   10   10.85057    3.89201  64.1%   7.6  145s
     605654 288440     cutoff   40        10.85057    3.93128  63.8%   7.6  150s
     623887 295686    6.87585   30   16   10.85057    3.97268  63.4%   7.6  155s
     642299 303146    8.78213   34   12   10.85057    4.01133  63.0%   7.6  160s
     660191 310145    6.14928   33   16   10.85057    4.04789  62.7%   7.6  165s
     678482 317545    9.40851   31   14   10.85057    4.08438  62.4%   7.6  170s
    H689966 322164                      10.8505716    4.10835  62.1%   7.6  173s
     696068 324562     cutoff   35        10.85057    4.11939  62.0%   7.6  175s
     714426 331900     cutoff   39        10.85057    4.15178  61.7%   7.6  180s
     733018 339192    8.50697   28   12   10.85057    4.18364  61.4%   7.6  185s
     751183 346313   10.65067   37   12   10.85057    4.21270  61.2%   7.7  190s
    H755717 348045                      10.8505716    4.21936  61.1%   7.7  191s
    H755928 348134                      10.8505716    4.21938  61.1%   7.7  191s
    H756609 348428                      10.8505716    4.21998  61.1%   7.7  191s
     768435 352894    9.62216   35   14   10.85057    4.23893  60.9%   7.7  195s
     786989 359948    8.14212   35   16   10.85057    4.26926  60.7%   7.7  200s
     802599 366059   10.21825   39    8   10.85057    4.29229  60.4%   7.7  205s
     821331 373196    6.07965   37   14   10.85057    4.32021  60.2%   7.7  210s
     839687 380147     cutoff   42        10.85057    4.34714  59.9%   7.7  215s
     858004 386825     cutoff   44        10.85057    4.37409  59.7%   7.7  220s
     876511 393887   10.62707   47    6   10.85057    4.40061  59.4%   7.7  225s
     894849 400810     cutoff   37        10.85057    4.42473  59.2%   7.7  230s
     913045 407535    9.68161   39   10   10.85057    4.44988  59.0%   7.7  235s
     930561 413874    9.29183   40    8   10.85057    4.47466  58.8%   7.7  240s
    H935020 415398                      10.8505716    4.48096  58.7%   7.7  241s
    H935232 415453                      10.8505716    4.48157  58.7%   7.7  241s
     947025 419834     cutoff   38        10.85057    4.49770  58.5%   7.7  245s
     965040 426257    9.50689   37   12   10.85057    4.52195  58.3%   7.7  250s
     980087 431645    6.48245   27   16   10.85057    4.54019  58.2%   7.7  255s
     997903 437924    6.06231   31   16   10.85057    4.56319  57.9%   7.7  260s
     1015358 444004    9.69640   30   14   10.85057    4.58451  57.7%   7.7  265s
     1033223 450133    9.23175   44    8   10.85057    4.60843  57.5%   7.7  270s
     1050901 456252    9.25104   42    8   10.85057    4.63111  57.3%   7.7  275s
     1068439 462297     cutoff   43        10.85057    4.65209  57.1%   7.7  280s
     1086275 468548    7.65365   33   14   10.85057    4.67404  56.9%   7.7  285s
     1103369 474292   10.49724   34    8   10.85057    4.69397  56.7%   7.7  290s
     1120216 479824   10.54058   40    6   10.85057    4.71478  56.5%   7.7  295s
    
    Cutting planes:
      Flow cover: 1
    
    Explored 1136924 nodes (8796302 simplex iterations) in 300.00 seconds (421.60 work units)
    Thread count was 1 (of 96 available processors)
    
    Solution count 7: 10.8506 10.9884 11.0423 ... 14.4948
    
    Time limit reached
    Best objective 1.085057158765e+01, best bound 4.733761034462e+00, gap 56.3732%
    
    User-callback calls 1137072, time in user-callback 0.05 sec

--- Reading solution for model GAMS_MODEL
***
*** Solver did not provide marginals for model GAMS_MODEL
***
--- Executing after solve: elapsed 0:05:00.468
--- model.gms(369) 3 Mb
--- model.gms(604) 5 Mb
--- Putfile results /local/scratch/a/sgusev/repos/k_means/data/gams_gurobi_gdp.bigm/no_mode/2026-02-15_06-37-54/original/results.dat
--- Putfile statresults /local/scratch/a/sgusev/repos/k_means/data/gams_gurobi_gdp.bigm/no_mode/2026-02-15_06-37-54/original/resultsstat.dat
*** Status: Normal completion
--- Job model.gms Stop 02/15/26 06:42:55 elapsed 0:05:00.468
Original problem solved. Time taken: 301.03612995147705 seconds
Original objective value: 10.850571587649796
